7107
1 1 1 1 1 0 1 1 0 1 
4 4 4 4 4 4 4 4 0 0 6 0 0 0 0 0 1 1 1 7 6 1 1 2 2 2 2 2 2 2 2 3 3 3 3 3 3 3 3 3 4 0 1 1 2 1 7 0 3 7 7 6 4 9 9 2 7 7 9 7 7 4 9 3 0 6 6 2 1 0 4 9 9 7 7 7 6 6 7 2 7 9 9 9 9 9 6 7 7 4 
